C101

VEHICLE
NUMBER     CAPACITY
  25         200

CUSTOMER
CUST NO.  XCOORD.   YCOORD.    DEMAND   READY TIME  DUE DATE   SERVICE   TIME

  0        40         50        0        0        240        0
  1        26         52        9        46        76        10
  2        30         60        16        140        170        10
  3        67         5        25        144        174        10
  4        20         85        20        41        71        10
  5        42         5        10        151        181        10
  6        53         43        14        14        44        10
  7        8         45        20        64        94        10
  8        85         25        10        51        81        10
  9        26         35        15        77        107        10
 10        15         60        17        155        185        10
 11        60         12        31        75        105        10
 12        88         35        20        61        91        10
 13        24         58        19        67        97        10
 14        56         37        6        34        64        10
 15        67         85        20        139        169        10
 16        6         68        30        89        119        10
 17        57         48        23        95        125        10
 18        60         85        30        85        115        10
 19        92         30        10        62        92        10
 20        65         85        40        43        73        10